50 10698

7
112
147
323
187
160
439
349
493
300
12
458
279
157
169
118
131
186
500
150
148
328
72
464
57
486
498
488
262
210
185
442
187
128
60
345
436
219
349
420
140
204
149
385
216
445
419
484
270
200
